10	5
0	1	1
1	1	6
2	2	7	9
3	1	2
4	1	3
5	2	10	4
6	2	5	8
7	1	11
8	1	11
9	1	11
10	1	11
11	0
0	0	0	0	0	0	0
1	7	4	3	2	5	5
2	9	5	5	3	5	2
3	3	3	1	1	4	3
4	2	2	5	3	0	2
5	1	1	2	2	0	0
6	7	4	3	0	0	0
7	2	2	0	0	4	2
8	4	1	0	2	0	3
9	5	4	1	2	2	5
10	2	0	3	3	5	0
11	0	0	0	0	0	0
7	6	5	6	6
